p cnf 18 60
-7 11 12 0
2 -3 -18 0
14 16 -17 0
9 -10 -16 0
-9 15 17 0
3 15 16 0
6 7 -12 0
-9 -13 15 0
10 13 -15 0
-10 14 -18 0
-3 -8 -9 0
4 7 -13 0
-5 -9 -15 0
-3 -6 -10 0
6 -8 -9 0
4 -9 -11 0
7 11 -12 0
5 8 16 0
-2 -4 -12 0
5 14 -15 0
-13 14 18 0
-4 -8 18 0
1 2 -17 0
4 7 -9 0
-3 -5 11 0
-6 -8 -16 0
-3 -6 -18 0
-6 11 -12 0
4 7 12 0
-6 -11 -14 0
9 14 17 0
2 -14 16 0
-4 -5 -9 0
-2 8 -12 0
-1 -8 13 0
4 12 -17 0
-4 -12 -18 0
-8 12 16 0
11 -12 17 0
-11 -16 -17 0
13 15 17 0
-7 -11 12 0
5 -10 -14 0
10 11 15 0
2 4 5 0
2 -10 17 0
-4 6 16 0
6 -11 12 0
3 -9 -11 0
3 -15 -17 0
-4 -7 -11 0
-4 -11 17 0
4 13 16 0
4 -9 12 0
-2 -16 17 0
1 -10 -12 0
-8 11 14 0
8 14 -15 0
1 3 -6 0
5 11 -13 0
